(set-logic QF_S)
(declare-fun var0 () String)
(declare-fun var1 () String)
(declare-fun var2 () String)
(declare-fun var3 () String)
(declare-fun var4 () Int)
(declare-fun var5 () Int)
(declare-fun var6 () Int)
(declare-fun var7 () Int)
(assert (> (str.indexof (str.replace "`S+" "GyE(_N" ".ceE)3""") (str.replace var0 var1 var2) (str.to.int var3)) (str.to.int (str.substr var0 var4 var5))))
(assert (>= (str.indexof var0 var3 var6) (str.to.int (str.substr var0 var7 var6))))
(assert (not (<= var7 var5)))
(assert (str.contains (str.replace (str.substr var1 var6 var7) (str.replace var3 "" var3) (str.at var2 var4)) (str.at var1 var6)))
(check-sat)